311450 129914
507708 175746
261308 175746
555711 55917
20115 11810
572562 172003
19917 235007
215058 11810
130605 210
265259 175746
186648 7093
572573 172003
17957 65743
19304 407539
214983 11810
107430 2810
20143 11810
172003 572566
12830 214457
12830 214469
7093 109453
71196 11810
268757 98292
9745 150852
11810 239485
11810 30033
